(set-info :smt-lib-version 2.6)
(set-logic QF_NIA)
(set-info :source |
Generated by: Cristina Borralleras, Daniel Larraz, Albert Oliveras, Enric Rodriguez-Carbonell, Albert Rubio
Generated on: 2017-04-27
Generator: VeryMax
Application: Termination proving
Target solver: barcelogic
|)
(set-info :license "https://creativecommons.org/licenses/by/4.0/")
(set-info :category "industrial")
(set-info :status sat)
(declare-fun Nl2main_x1 () Int)
(declare-fun Nl2main_oldx1 () Int)
(declare-fun Nl2main_x2 () Int)
(declare-fun Nl2main_oldx2 () Int)
(declare-fun Nl2main_x3 () Int)
(declare-fun Nl2main_oldx3 () Int)
(declare-fun lam0n0 () Int)
(declare-fun lam0n1 () Int)
(declare-fun lam0n2 () Int)
(declare-fun lam0n3 () Int)
(declare-fun lam0n4 () Int)
(declare-fun lam0n5 () Int)
(declare-fun lam0n6 () Int)
(declare-fun lam0n7 () Int)
(declare-fun lam0n8 () Int)
(declare-fun UndefCntr0_CT () Int)
(declare-fun Nl2CT1 () Int)
(declare-fun Nl2CT2 () Int)
(declare-fun Nl2CT3 () Int)
(declare-fun UndefCntr0_main_x () Int)
(declare-fun UndefCntr0_main_oldx () Int)
(declare-fun UndefCntr0_undef4 () Int)
(declare-fun lam1n0 () Int)
(declare-fun lam1n1 () Int)
(declare-fun lam1n2 () Int)
(declare-fun lam1n3 () Int)
(declare-fun lam1n4 () Int)
(declare-fun lam1n5 () Int)
(declare-fun lam1n6 () Int)
(declare-fun lam1n7 () Int)
(declare-fun lam1n8 () Int)
(declare-fun lam2n0 () Int)
(declare-fun lam2n1 () Int)
(declare-fun lam2n2 () Int)
(declare-fun lam2n3 () Int)
(declare-fun lam2n4 () Int)
(declare-fun lam2n5 () Int)
(declare-fun lam2n6 () Int)
(declare-fun lam2n7 () Int)
(declare-fun lam2n8 () Int)
(declare-fun lam3n0 () Int)
(declare-fun lam3n1 () Int)
(declare-fun lam3n2 () Int)
(declare-fun lam3n3 () Int)
(declare-fun lam3n4 () Int)
(declare-fun lam3n5 () Int)
(declare-fun lam3n6 () Int)
(declare-fun lam3n7 () Int)
(declare-fun lam3n8 () Int)
(declare-fun lam4n0 () Int)
(declare-fun lam4n1 () Int)
(declare-fun lam4n2 () Int)
(declare-fun lam4n3 () Int)
(declare-fun lam4n4 () Int)
(declare-fun lam4n5 () Int)
(declare-fun lam4n6 () Int)
(declare-fun lam4n7 () Int)
(declare-fun lam4n8 () Int)
(declare-fun UndefCntr1_CT () Int)
(declare-fun UndefCntr1_main_x () Int)
(declare-fun UndefCntr1_main_oldx () Int)
(declare-fun UndefCntr1_undef4 () Int)
(declare-fun lam5n0 () Int)
(declare-fun lam5n1 () Int)
(declare-fun lam5n2 () Int)
(declare-fun lam5n3 () Int)
(declare-fun lam5n4 () Int)
(declare-fun lam5n5 () Int)
(declare-fun lam5n6 () Int)
(declare-fun lam5n7 () Int)
(declare-fun lam5n8 () Int)
(declare-fun lam6n0 () Int)
(declare-fun lam6n1 () Int)
(declare-fun lam6n2 () Int)
(declare-fun lam6n3 () Int)
(declare-fun lam6n4 () Int)
(declare-fun lam6n5 () Int)
(declare-fun lam6n6 () Int)
(declare-fun lam6n7 () Int)
(declare-fun lam6n8 () Int)
(declare-fun lam7n0 () Int)
(declare-fun lam7n1 () Int)
(declare-fun lam7n2 () Int)
(declare-fun lam7n3 () Int)
(declare-fun lam7n4 () Int)
(declare-fun lam7n5 () Int)
(declare-fun lam7n6 () Int)
(declare-fun lam7n7 () Int)
(declare-fun lam7n8 () Int)
(declare-fun lam8n0 () Int)
(declare-fun lam9n0 () Int)
(declare-fun lam10n0 () Int)
(declare-fun main_x () Int)
(declare-fun undef3 () Int)
(declare-fun main_oldx () Int)
(declare-fun FV_main_x_2 () Int)
(declare-fun FV_main_oldx_2 () Int)
(declare-fun lam11n0 () Int)
(declare-fun lam11n1 () Int)
(declare-fun lam11n2 () Int)
(declare-fun lam11n3 () Int)
(declare-fun lam11n4 () Int)
(declare-fun lam11n5 () Int)
(declare-fun lam11n6 () Int)
(declare-fun lam12n0 () Int)
(declare-fun lam12n1 () Int)
(declare-fun lam12n2 () Int)
(declare-fun lam12n3 () Int)
(declare-fun lam12n4 () Int)
(declare-fun lam12n5 () Int)
(declare-fun lam12n6 () Int)
(declare-fun UndefDef0undef4_CT () Int)
(declare-fun UndefDef0undef4_main_x () Int)
(declare-fun UndefDef0undef4_main_oldx () Int)
(declare-fun lam13n0 () Int)
(declare-fun lam13n1 () Int)
(declare-fun lam13n2 () Int)
(declare-fun lam13n3 () Int)
(declare-fun lam13n4 () Int)
(declare-fun lam13n5 () Int)
(declare-fun lam13n6 () Int)
(declare-fun lam14n0 () Int)
(declare-fun lam14n1 () Int)
(declare-fun lam14n2 () Int)
(declare-fun lam14n3 () Int)
(declare-fun lam14n4 () Int)
(declare-fun lam14n5 () Int)
(declare-fun lam14n6 () Int)
(declare-fun lam15n0 () Int)
(declare-fun lam15n1 () Int)
(declare-fun lam15n2 () Int)
(declare-fun lam15n3 () Int)
(declare-fun lam15n4 () Int)
(declare-fun lam15n5 () Int)
(declare-fun lam15n6 () Int)
(declare-fun UndefDef1undef4_CT () Int)
(declare-fun UndefDef1undef4_main_x () Int)
(declare-fun UndefDef1undef4_main_oldx () Int)
(declare-fun lam16n0 () Int)
(declare-fun lam16n1 () Int)
(declare-fun lam16n2 () Int)
(declare-fun lam16n3 () Int)
(declare-fun lam16n4 () Int)
(declare-fun lam16n5 () Int)
(declare-fun lam16n6 () Int)
(declare-fun lam17n0 () Int)
(declare-fun lam17n1 () Int)
(declare-fun lam17n2 () Int)
(declare-fun lam17n3 () Int)
(declare-fun lam17n4 () Int)
(declare-fun lam17n5 () Int)
(declare-fun lam17n6 () Int)
(declare-fun lam18n0 () Int)
(declare-fun lam18n1 () Int)
(declare-fun lam18n2 () Int)
(declare-fun lam18n3 () Int)
(declare-fun lam18n4 () Int)
(declare-fun lam18n5 () Int)
(declare-fun lam18n6 () Int)
(declare-fun FV_main_x_3 () Int)
(declare-fun FV_main_oldx_3 () Int)
(declare-fun FV_undef4_3 () Int)
(assert ( and ( <= ( - 1 ) Nl2main_x1 ) ( <= Nl2main_x1 1 ) ( <= ( - 1 ) Nl2main_oldx1 ) ( <= Nl2main_oldx1 1 ) ( <= ( - 1 ) Nl2main_x2 ) ( <= Nl2main_x2 1 ) ( <= ( - 1 ) Nl2main_oldx2 ) ( <= Nl2main_oldx2 1 ) ( <= ( - 1 ) Nl2main_x3 ) ( <= Nl2main_x3 1 ) ( <= ( - 1 ) Nl2main_oldx3 ) ( <= Nl2main_oldx3 1 ) ))
(assert ( or ( and ( >= lam0n0 0 ) ( >= lam0n1 0 ) ( >= lam0n2 0 ) ( >= lam0n3 0 ) ( >= lam0n4 0 ) ( >= lam0n5 0 ) ( >= lam0n6 0 ) ( >= lam0n7 0 ) ( >= lam0n8 0 ) ( > ( + ( * 2 lam0n1 ) ( * 2 lam0n2 ) ( * ( - 3 ) lam0n3 ) ( * 12 lam0n4 ) ( * UndefCntr0_CT lam0n5 ) ( * Nl2CT1 lam0n6 ) ( * Nl2CT2 lam0n7 ) ( * Nl2CT3 lam0n8 ) ( - 1 ) ) 0 ) ( = ( + ( * ( - 1 ) lam0n0 ) ( * ( - 1 ) lam0n1 ) ( * 2 lam0n3 ) ( * ( - 1 ) lam0n4 ) ( * UndefCntr0_main_x lam0n5 ) ( * Nl2main_x1 lam0n6 ) ( * Nl2main_x2 lam0n7 ) ( * Nl2main_x3 lam0n8 ) ) 0 ) ( = ( + ( * 2 lam0n0 ) ( * ( - 1 ) lam0n2 ) ( * 2 lam0n3 ) ( * 1 lam0n4 ) ( * UndefCntr0_main_oldx lam0n5 ) ( * Nl2main_oldx1 lam0n6 ) ( * Nl2main_oldx2 lam0n7 ) ( * Nl2main_oldx3 lam0n8 ) ) 0 ) ( = ( + ( * ( - 1 ) lam0n3 ) ( * UndefCntr0_undef4 lam0n5 ) ) 0 ) ) ( and ( >= lam1n0 0 ) ( >= lam1n1 0 ) ( >= lam1n2 0 ) ( >= lam1n3 0 ) ( >= lam1n4 0 ) ( >= lam1n5 0 ) ( >= lam1n6 0 ) ( >= lam1n7 0 ) ( >= lam1n8 0 ) ( > ( + ( * 2 lam1n1 ) ( * 2 lam1n2 ) ( * ( - 3 ) lam1n3 ) ( * 12 lam1n4 ) ( * UndefCntr0_CT lam1n5 ) ( * Nl2CT1 lam1n6 ) ( * Nl2CT2 lam1n7 ) ( * Nl2CT3 lam1n8 ) ( - 1 ( + ( + Nl2CT1 ( * Nl2main_x1 0 ) ) ( * Nl2main_oldx1 0 ) ) ) ) 0 ) ( = ( + ( * ( - 1 ) lam1n0 ) ( * ( - 1 ) lam1n1 ) ( * 2 lam1n3 ) ( * ( - 1 ) lam1n4 ) ( * UndefCntr0_main_x lam1n5 ) ( * Nl2main_x1 lam1n6 ) ( * Nl2main_x2 lam1n7 ) ( * Nl2main_x3 lam1n8 ) ( - ( + 0 ( * Nl2main_oldx1 1 ) ) ) ) 0 ) ( = ( + ( * 2 lam1n0 ) ( * ( - 1 ) lam1n2 ) ( * 2 lam1n3 ) ( * 1 lam1n4 ) ( * UndefCntr0_main_oldx lam1n5 ) ( * Nl2main_oldx1 lam1n6 ) ( * Nl2main_oldx2 lam1n7 ) ( * Nl2main_oldx3 lam1n8 ) ) 0 ) ( = ( + ( * ( - 1 ) lam1n3 ) ( * UndefCntr0_undef4 lam1n5 ) ( - ( + 0 ( * Nl2main_x1 1 ) ) ) ) 0 ) ) ))
(assert ( or ( and ( >= lam0n0 0 ) ( >= lam0n1 0 ) ( >= lam0n2 0 ) ( >= lam0n3 0 ) ( >= lam0n4 0 ) ( >= lam0n5 0 ) ( >= lam0n6 0 ) ( >= lam0n7 0 ) ( >= lam0n8 0 ) ( > ( + ( * 2 lam0n1 ) ( * 2 lam0n2 ) ( * ( - 3 ) lam0n3 ) ( * 12 lam0n4 ) ( * UndefCntr0_CT lam0n5 ) ( * Nl2CT1 lam0n6 ) ( * Nl2CT2 lam0n7 ) ( * Nl2CT3 lam0n8 ) ( - 1 ) ) 0 ) ( = ( + ( * ( - 1 ) lam0n0 ) ( * ( - 1 ) lam0n1 ) ( * 2 lam0n3 ) ( * ( - 1 ) lam0n4 ) ( * UndefCntr0_main_x lam0n5 ) ( * Nl2main_x1 lam0n6 ) ( * Nl2main_x2 lam0n7 ) ( * Nl2main_x3 lam0n8 ) ) 0 ) ( = ( + ( * 2 lam0n0 ) ( * ( - 1 ) lam0n2 ) ( * 2 lam0n3 ) ( * 1 lam0n4 ) ( * UndefCntr0_main_oldx lam0n5 ) ( * Nl2main_oldx1 lam0n6 ) ( * Nl2main_oldx2 lam0n7 ) ( * Nl2main_oldx3 lam0n8 ) ) 0 ) ( = ( + ( * ( - 1 ) lam0n3 ) ( * UndefCntr0_undef4 lam0n5 ) ) 0 ) ) ( and ( >= lam2n0 0 ) ( >= lam2n1 0 ) ( >= lam2n2 0 ) ( >= lam2n3 0 ) ( >= lam2n4 0 ) ( >= lam2n5 0 ) ( >= lam2n6 0 ) ( >= lam2n7 0 ) ( >= lam2n8 0 ) ( > ( + ( * 2 lam2n1 ) ( * 2 lam2n2 ) ( * ( - 3 ) lam2n3 ) ( * 12 lam2n4 ) ( * UndefCntr0_CT lam2n5 ) ( * Nl2CT1 lam2n6 ) ( * Nl2CT2 lam2n7 ) ( * Nl2CT3 lam2n8 ) ( - 1 ( + ( + Nl2CT2 ( * Nl2main_x2 0 ) ) ( * Nl2main_oldx2 0 ) ) ) ) 0 ) ( = ( + ( * ( - 1 ) lam2n0 ) ( * ( - 1 ) lam2n1 ) ( * 2 lam2n3 ) ( * ( - 1 ) lam2n4 ) ( * UndefCntr0_main_x lam2n5 ) ( * Nl2main_x1 lam2n6 ) ( * Nl2main_x2 lam2n7 ) ( * Nl2main_x3 lam2n8 ) ( - ( + 0 ( * Nl2main_oldx2 1 ) ) ) ) 0 ) ( = ( + ( * 2 lam2n0 ) ( * ( - 1 ) lam2n2 ) ( * 2 lam2n3 ) ( * 1 lam2n4 ) ( * UndefCntr0_main_oldx lam2n5 ) ( * Nl2main_oldx1 lam2n6 ) ( * Nl2main_oldx2 lam2n7 ) ( * Nl2main_oldx3 lam2n8 ) ) 0 ) ( = ( + ( * ( - 1 ) lam2n3 ) ( * UndefCntr0_undef4 lam2n5 ) ( - ( + 0 ( * Nl2main_x2 1 ) ) ) ) 0 ) ) ))
(assert ( or ( and ( >= lam0n0 0 ) ( >= lam0n1 0 ) ( >= lam0n2 0 ) ( >= lam0n3 0 ) ( >= lam0n4 0 ) ( >= lam0n5 0 ) ( >= lam0n6 0 ) ( >= lam0n7 0 ) ( >= lam0n8 0 ) ( > ( + ( * 2 lam0n1 ) ( * 2 lam0n2 ) ( * ( - 3 ) lam0n3 ) ( * 12 lam0n4 ) ( * UndefCntr0_CT lam0n5 ) ( * Nl2CT1 lam0n6 ) ( * Nl2CT2 lam0n7 ) ( * Nl2CT3 lam0n8 ) ( - 1 ) ) 0 ) ( = ( + ( * ( - 1 ) lam0n0 ) ( * ( - 1 ) lam0n1 ) ( * 2 lam0n3 ) ( * ( - 1 ) lam0n4 ) ( * UndefCntr0_main_x lam0n5 ) ( * Nl2main_x1 lam0n6 ) ( * Nl2main_x2 lam0n7 ) ( * Nl2main_x3 lam0n8 ) ) 0 ) ( = ( + ( * 2 lam0n0 ) ( * ( - 1 ) lam0n2 ) ( * 2 lam0n3 ) ( * 1 lam0n4 ) ( * UndefCntr0_main_oldx lam0n5 ) ( * Nl2main_oldx1 lam0n6 ) ( * Nl2main_oldx2 lam0n7 ) ( * Nl2main_oldx3 lam0n8 ) ) 0 ) ( = ( + ( * ( - 1 ) lam0n3 ) ( * UndefCntr0_undef4 lam0n5 ) ) 0 ) ) ( and ( >= lam3n0 0 ) ( >= lam3n1 0 ) ( >= lam3n2 0 ) ( >= lam3n3 0 ) ( >= lam3n4 0 ) ( >= lam3n5 0 ) ( >= lam3n6 0 ) ( >= lam3n7 0 ) ( >= lam3n8 0 ) ( > ( + ( * 2 lam3n1 ) ( * 2 lam3n2 ) ( * ( - 3 ) lam3n3 ) ( * 12 lam3n4 ) ( * UndefCntr0_CT lam3n5 ) ( * Nl2CT1 lam3n6 ) ( * Nl2CT2 lam3n7 ) ( * Nl2CT3 lam3n8 ) ( - 1 ( + ( + Nl2CT3 ( * Nl2main_x3 0 ) ) ( * Nl2main_oldx3 0 ) ) ) ) 0 ) ( = ( + ( * ( - 1 ) lam3n0 ) ( * ( - 1 ) lam3n1 ) ( * 2 lam3n3 ) ( * ( - 1 ) lam3n4 ) ( * UndefCntr0_main_x lam3n5 ) ( * Nl2main_x1 lam3n6 ) ( * Nl2main_x2 lam3n7 ) ( * Nl2main_x3 lam3n8 ) ( - ( + 0 ( * Nl2main_oldx3 1 ) ) ) ) 0 ) ( = ( + ( * 2 lam3n0 ) ( * ( - 1 ) lam3n2 ) ( * 2 lam3n3 ) ( * 1 lam3n4 ) ( * UndefCntr0_main_oldx lam3n5 ) ( * Nl2main_oldx1 lam3n6 ) ( * Nl2main_oldx2 lam3n7 ) ( * Nl2main_oldx3 lam3n8 ) ) 0 ) ( = ( + ( * ( - 1 ) lam3n3 ) ( * UndefCntr0_undef4 lam3n5 ) ( - ( + 0 ( * Nl2main_x3 1 ) ) ) ) 0 ) ) ))
(assert ( or ( and ( >= lam4n0 0 ) ( >= lam4n1 0 ) ( >= lam4n2 0 ) ( >= lam4n3 0 ) ( >= lam4n4 0 ) ( >= lam4n5 0 ) ( >= lam4n6 0 ) ( >= lam4n7 0 ) ( >= lam4n8 0 ) ( > ( + ( * 2 lam4n1 ) ( * ( - 1 ) lam4n2 ) ( * ( - 4 ) lam4n3 ) ( * 12 lam4n4 ) ( * UndefCntr1_CT lam4n5 ) ( * Nl2CT1 lam4n6 ) ( * Nl2CT2 lam4n7 ) ( * Nl2CT3 lam4n8 ) ( - 1 ) ) 0 ) ( = ( + ( * ( - 1 ) lam4n0 ) ( * ( - 1 ) lam4n1 ) ( * 5 lam4n3 ) ( * ( - 1 ) lam4n4 ) ( * UndefCntr1_main_x lam4n5 ) ( * Nl2main_x1 lam4n6 ) ( * Nl2main_x2 lam4n7 ) ( * Nl2main_x3 lam4n8 ) ) 0 ) ( = ( + ( * 2 lam4n0 ) ( * 1 lam4n2 ) ( * ( - 8 ) lam4n3 ) ( * 1 lam4n4 ) ( * UndefCntr1_main_oldx lam4n5 ) ( * Nl2main_oldx1 lam4n6 ) ( * Nl2main_oldx2 lam4n7 ) ( * Nl2main_oldx3 lam4n8 ) ) 0 ) ( = ( + ( * ( - 2 ) lam4n3 ) ( * UndefCntr1_undef4 lam4n5 ) ) 0 ) ) ( and ( >= lam5n0 0 ) ( >= lam5n1 0 ) ( >= lam5n2 0 ) ( >= lam5n3 0 ) ( >= lam5n4 0 ) ( >= lam5n5 0 ) ( >= lam5n6 0 ) ( >= lam5n7 0 ) ( >= lam5n8 0 ) ( > ( + ( * 2 lam5n1 ) ( * ( - 1 ) lam5n2 ) ( * ( - 4 ) lam5n3 ) ( * 12 lam5n4 ) ( * UndefCntr1_CT lam5n5 ) ( * Nl2CT1 lam5n6 ) ( * Nl2CT2 lam5n7 ) ( * Nl2CT3 lam5n8 ) ( - 1 ( + ( + Nl2CT1 ( * Nl2main_x1 0 ) ) ( * Nl2main_oldx1 0 ) ) ) ) 0 ) ( = ( + ( * ( - 1 ) lam5n0 ) ( * ( - 1 ) lam5n1 ) ( * 5 lam5n3 ) ( * ( - 1 ) lam5n4 ) ( * UndefCntr1_main_x lam5n5 ) ( * Nl2main_x1 lam5n6 ) ( * Nl2main_x2 lam5n7 ) ( * Nl2main_x3 lam5n8 ) ( - ( + 0 ( * Nl2main_oldx1 1 ) ) ) ) 0 ) ( = ( + ( * 2 lam5n0 ) ( * 1 lam5n2 ) ( * ( - 8 ) lam5n3 ) ( * 1 lam5n4 ) ( * UndefCntr1_main_oldx lam5n5 ) ( * Nl2main_oldx1 lam5n6 ) ( * Nl2main_oldx2 lam5n7 ) ( * Nl2main_oldx3 lam5n8 ) ) 0 ) ( = ( + ( * ( - 2 ) lam5n3 ) ( * UndefCntr1_undef4 lam5n5 ) ( - ( + 0 ( * Nl2main_x1 1 ) ) ) ) 0 ) ) ))
(assert ( or ( and ( >= lam4n0 0 ) ( >= lam4n1 0 ) ( >= lam4n2 0 ) ( >= lam4n3 0 ) ( >= lam4n4 0 ) ( >= lam4n5 0 ) ( >= lam4n6 0 ) ( >= lam4n7 0 ) ( >= lam4n8 0 ) ( > ( + ( * 2 lam4n1 ) ( * ( - 1 ) lam4n2 ) ( * ( - 4 ) lam4n3 ) ( * 12 lam4n4 ) ( * UndefCntr1_CT lam4n5 ) ( * Nl2CT1 lam4n6 ) ( * Nl2CT2 lam4n7 ) ( * Nl2CT3 lam4n8 ) ( - 1 ) ) 0 ) ( = ( + ( * ( - 1 ) lam4n0 ) ( * ( - 1 ) lam4n1 ) ( * 5 lam4n3 ) ( * ( - 1 ) lam4n4 ) ( * UndefCntr1_main_x lam4n5 ) ( * Nl2main_x1 lam4n6 ) ( * Nl2main_x2 lam4n7 ) ( * Nl2main_x3 lam4n8 ) ) 0 ) ( = ( + ( * 2 lam4n0 ) ( * 1 lam4n2 ) ( * ( - 8 ) lam4n3 ) ( * 1 lam4n4 ) ( * UndefCntr1_main_oldx lam4n5 ) ( * Nl2main_oldx1 lam4n6 ) ( * Nl2main_oldx2 lam4n7 ) ( * Nl2main_oldx3 lam4n8 ) ) 0 ) ( = ( + ( * ( - 2 ) lam4n3 ) ( * UndefCntr1_undef4 lam4n5 ) ) 0 ) ) ( and ( >= lam6n0 0 ) ( >= lam6n1 0 ) ( >= lam6n2 0 ) ( >= lam6n3 0 ) ( >= lam6n4 0 ) ( >= lam6n5 0 ) ( >= lam6n6 0 ) ( >= lam6n7 0 ) ( >= lam6n8 0 ) ( > ( + ( * 2 lam6n1 ) ( * ( - 1 ) lam6n2 ) ( * ( - 4 ) lam6n3 ) ( * 12 lam6n4 ) ( * UndefCntr1_CT lam6n5 ) ( * Nl2CT1 lam6n6 ) ( * Nl2CT2 lam6n7 ) ( * Nl2CT3 lam6n8 ) ( - 1 ( + ( + Nl2CT2 ( * Nl2main_x2 0 ) ) ( * Nl2main_oldx2 0 ) ) ) ) 0 ) ( = ( + ( * ( - 1 ) lam6n0 ) ( * ( - 1 ) lam6n1 ) ( * 5 lam6n3 ) ( * ( - 1 ) lam6n4 ) ( * UndefCntr1_main_x lam6n5 ) ( * Nl2main_x1 lam6n6 ) ( * Nl2main_x2 lam6n7 ) ( * Nl2main_x3 lam6n8 ) ( - ( + 0 ( * Nl2main_oldx2 1 ) ) ) ) 0 ) ( = ( + ( * 2 lam6n0 ) ( * 1 lam6n2 ) ( * ( - 8 ) lam6n3 ) ( * 1 lam6n4 ) ( * UndefCntr1_main_oldx lam6n5 ) ( * Nl2main_oldx1 lam6n6 ) ( * Nl2main_oldx2 lam6n7 ) ( * Nl2main_oldx3 lam6n8 ) ) 0 ) ( = ( + ( * ( - 2 ) lam6n3 ) ( * UndefCntr1_undef4 lam6n5 ) ( - ( + 0 ( * Nl2main_x2 1 ) ) ) ) 0 ) ) ))
(assert ( or ( and ( >= lam4n0 0 ) ( >= lam4n1 0 ) ( >= lam4n2 0 ) ( >= lam4n3 0 ) ( >= lam4n4 0 ) ( >= lam4n5 0 ) ( >= lam4n6 0 ) ( >= lam4n7 0 ) ( >= lam4n8 0 ) ( > ( + ( * 2 lam4n1 ) ( * ( - 1 ) lam4n2 ) ( * ( - 4 ) lam4n3 ) ( * 12 lam4n4 ) ( * UndefCntr1_CT lam4n5 ) ( * Nl2CT1 lam4n6 ) ( * Nl2CT2 lam4n7 ) ( * Nl2CT3 lam4n8 ) ( - 1 ) ) 0 ) ( = ( + ( * ( - 1 ) lam4n0 ) ( * ( - 1 ) lam4n1 ) ( * 5 lam4n3 ) ( * ( - 1 ) lam4n4 ) ( * UndefCntr1_main_x lam4n5 ) ( * Nl2main_x1 lam4n6 ) ( * Nl2main_x2 lam4n7 ) ( * Nl2main_x3 lam4n8 ) ) 0 ) ( = ( + ( * 2 lam4n0 ) ( * 1 lam4n2 ) ( * ( - 8 ) lam4n3 ) ( * 1 lam4n4 ) ( * UndefCntr1_main_oldx lam4n5 ) ( * Nl2main_oldx1 lam4n6 ) ( * Nl2main_oldx2 lam4n7 ) ( * Nl2main_oldx3 lam4n8 ) ) 0 ) ( = ( + ( * ( - 2 ) lam4n3 ) ( * UndefCntr1_undef4 lam4n5 ) ) 0 ) ) ( and ( >= lam7n0 0 ) ( >= lam7n1 0 ) ( >= lam7n2 0 ) ( >= lam7n3 0 ) ( >= lam7n4 0 ) ( >= lam7n5 0 ) ( >= lam7n6 0 ) ( >= lam7n7 0 ) ( >= lam7n8 0 ) ( > ( + ( * 2 lam7n1 ) ( * ( - 1 ) lam7n2 ) ( * ( - 4 ) lam7n3 ) ( * 12 lam7n4 ) ( * UndefCntr1_CT lam7n5 ) ( * Nl2CT1 lam7n6 ) ( * Nl2CT2 lam7n7 ) ( * Nl2CT3 lam7n8 ) ( - 1 ( + ( + Nl2CT3 ( * Nl2main_x3 0 ) ) ( * Nl2main_oldx3 0 ) ) ) ) 0 ) ( = ( + ( * ( - 1 ) lam7n0 ) ( * ( - 1 ) lam7n1 ) ( * 5 lam7n3 ) ( * ( - 1 ) lam7n4 ) ( * UndefCntr1_main_x lam7n5 ) ( * Nl2main_x1 lam7n6 ) ( * Nl2main_x2 lam7n7 ) ( * Nl2main_x3 lam7n8 ) ( - ( + 0 ( * Nl2main_oldx3 1 ) ) ) ) 0 ) ( = ( + ( * 2 lam7n0 ) ( * 1 lam7n2 ) ( * ( - 8 ) lam7n3 ) ( * 1 lam7n4 ) ( * UndefCntr1_main_oldx lam7n5 ) ( * Nl2main_oldx1 lam7n6 ) ( * Nl2main_oldx2 lam7n7 ) ( * Nl2main_oldx3 lam7n8 ) ) 0 ) ( = ( + ( * ( - 2 ) lam7n3 ) ( * UndefCntr1_undef4 lam7n5 ) ( - ( + 0 ( * Nl2main_x3 1 ) ) ) ) 0 ) ) ))
(assert ( and ( <= ( + Nl2CT1 ( * Nl2main_x1 FV_main_x_2 ) ( * Nl2main_oldx1 FV_main_oldx_2 ) ) 0 ) ( <= ( + Nl2CT2 ( * Nl2main_x2 FV_main_x_2 ) ( * Nl2main_oldx2 FV_main_oldx_2 ) ) 0 ) ( <= ( + Nl2CT3 ( * Nl2main_x3 FV_main_x_2 ) ( * Nl2main_oldx3 FV_main_oldx_2 ) ) 0 ) ( <= ( + 12 ( * ( - 1 ) FV_main_x_2 ) FV_main_oldx_2 ) 0 ) ))
(assert ( or ( not ( = UndefCntr0_main_x 0 ) ) ( not ( = UndefCntr0_main_oldx 0 ) ) ( not ( = UndefCntr0_undef4 0 ) ) ( = UndefCntr0_CT 0 ) ))
(assert ( or ( and ( = UndefCntr0_main_x 0 ) ( = UndefCntr0_main_oldx 0 ) ) ( not ( = UndefCntr0_undef4 0 ) ) ))
(assert ( or ( not ( = UndefCntr1_main_x 0 ) ) ( not ( = UndefCntr1_main_oldx 0 ) ) ( not ( = UndefCntr1_undef4 0 ) ) ( = UndefCntr1_CT 0 ) ))
(assert ( or ( and ( = UndefCntr1_main_x 0 ) ( = UndefCntr1_main_oldx 0 ) ) ( not ( = UndefCntr1_undef4 0 ) ) ))
(assert ( or ( and ( >= lam11n0 0 ) ( >= lam11n1 0 ) ( >= lam11n2 0 ) ( >= lam11n3 0 ) ( >= lam11n4 0 ) ( >= lam11n5 0 ) ( >= lam11n6 0 ) ( > ( + ( * 2 lam11n1 ) ( * 2 lam11n2 ) ( * 12 lam11n3 ) ( * Nl2CT1 lam11n4 ) ( * Nl2CT2 lam11n5 ) ( * Nl2CT3 lam11n6 ) ( - 1 ) ) 0 ) ( = ( + ( * ( - 1 ) lam11n0 ) ( * ( - 1 ) lam11n1 ) ( * ( - 1 ) lam11n3 ) ( * Nl2main_x1 lam11n4 ) ( * Nl2main_x2 lam11n5 ) ( * Nl2main_x3 lam11n6 ) ) 0 ) ( = ( + ( * 2 lam11n0 ) ( * ( - 1 ) lam11n2 ) ( * 1 lam11n3 ) ( * Nl2main_oldx1 lam11n4 ) ( * Nl2main_oldx2 lam11n5 ) ( * Nl2main_oldx3 lam11n6 ) ) 0 ) ) ( and ( and ( >= lam12n0 0 ) ( >= lam12n1 0 ) ( >= lam12n2 0 ) ( >= lam12n3 0 ) ( >= lam12n4 0 ) ( >= lam12n5 0 ) ( >= lam12n6 0 ) ( > ( + ( * 2 lam12n1 ) ( * 2 lam12n2 ) ( * 12 lam12n3 ) ( * Nl2CT1 lam12n4 ) ( * Nl2CT2 lam12n5 ) ( * Nl2CT3 lam12n6 ) ( - 1 ( + ( + ( + ( - 3 ) 0 ) 0 ) ( * ( - 1 ) UndefDef0undef4_CT ) ) ) ) 0 ) ( = ( + ( * ( - 1 ) lam12n0 ) ( * ( - 1 ) lam12n1 ) ( * ( - 1 ) lam12n3 ) ( * Nl2main_x1 lam12n4 ) ( * Nl2main_x2 lam12n5 ) ( * Nl2main_x3 lam12n6 ) ( - ( + 2 ( * UndefDef0undef4_main_x ( - 1 ) ) ) ) ) 0 ) ( = ( + ( * 2 lam12n0 ) ( * ( - 1 ) lam12n2 ) ( * 1 lam12n3 ) ( * Nl2main_oldx1 lam12n4 ) ( * Nl2main_oldx2 lam12n5 ) ( * Nl2main_oldx3 lam12n6 ) ( - ( + 2 ( * UndefDef0undef4_main_oldx ( - 1 ) ) ) ) ) 0 ) ) ( or ( = UndefCntr0_undef4 0 ) ( and ( >= lam13n0 0 ) ( >= lam13n1 0 ) ( >= lam13n2 0 ) ( >= lam13n3 0 ) ( >= lam13n4 0 ) ( >= lam13n5 0 ) ( >= lam13n6 0 ) ( > ( + ( * 2 lam13n1 ) ( * 2 lam13n2 ) ( * 12 lam13n3 ) ( * Nl2CT1 lam13n4 ) ( * Nl2CT2 lam13n5 ) ( * Nl2CT3 lam13n6 ) ( - 1 ( + ( + ( + UndefCntr0_CT 0 ) 0 ) ( * UndefCntr0_undef4 UndefDef0undef4_CT ) ) ) ) 0 ) ( = ( + ( * ( - 1 ) lam13n0 ) ( * ( - 1 ) lam13n1 ) ( * ( - 1 ) lam13n3 ) ( * Nl2main_x1 lam13n4 ) ( * Nl2main_x2 lam13n5 ) ( * Nl2main_x3 lam13n6 ) ( - ( + UndefCntr0_main_x ( * UndefDef0undef4_main_x UndefCntr0_undef4 ) ) ) ) 0 ) ( = ( + ( * 2 lam13n0 ) ( * ( - 1 ) lam13n2 ) ( * 1 lam13n3 ) ( * Nl2main_oldx1 lam13n4 ) ( * Nl2main_oldx2 lam13n5 ) ( * Nl2main_oldx3 lam13n6 ) ( - ( + UndefCntr0_main_oldx ( * UndefDef0undef4_main_oldx UndefCntr0_undef4 ) ) ) ) 0 ) ) ) ) ))
(assert ( or ( and ( >= lam14n0 0 ) ( >= lam14n1 0 ) ( >= lam14n2 0 ) ( >= lam14n3 0 ) ( >= lam14n4 0 ) ( >= lam14n5 0 ) ( >= lam14n6 0 ) ( > ( + ( * 2 lam14n1 ) ( * ( - 1 ) lam14n2 ) ( * 12 lam14n3 ) ( * Nl2CT1 lam14n4 ) ( * Nl2CT2 lam14n5 ) ( * Nl2CT3 lam14n6 ) ( - 1 ) ) 0 ) ( = ( + ( * ( - 1 ) lam14n0 ) ( * ( - 1 ) lam14n1 ) ( * ( - 1 ) lam14n3 ) ( * Nl2main_x1 lam14n4 ) ( * Nl2main_x2 lam14n5 ) ( * Nl2main_x3 lam14n6 ) ) 0 ) ( = ( + ( * 2 lam14n0 ) ( * 1 lam14n2 ) ( * 1 lam14n3 ) ( * Nl2main_oldx1 lam14n4 ) ( * Nl2main_oldx2 lam14n5 ) ( * Nl2main_oldx3 lam14n6 ) ) 0 ) ) ( and ( and ( >= lam15n0 0 ) ( >= lam15n1 0 ) ( >= lam15n2 0 ) ( >= lam15n3 0 ) ( >= lam15n4 0 ) ( >= lam15n5 0 ) ( >= lam15n6 0 ) ( > ( + ( * 2 lam15n1 ) ( * ( - 1 ) lam15n2 ) ( * 12 lam15n3 ) ( * Nl2CT1 lam15n4 ) ( * Nl2CT2 lam15n5 ) ( * Nl2CT3 lam15n6 ) ( - 1 ( + ( + ( + ( - 4 ) 0 ) 0 ) ( * ( - 2 ) UndefDef1undef4_CT ) ) ) ) 0 ) ( = ( + ( * ( - 1 ) lam15n0 ) ( * ( - 1 ) lam15n1 ) ( * ( - 1 ) lam15n3 ) ( * Nl2main_x1 lam15n4 ) ( * Nl2main_x2 lam15n5 ) ( * Nl2main_x3 lam15n6 ) ( - ( + 5 ( * UndefDef1undef4_main_x ( - 2 ) ) ) ) ) 0 ) ( = ( + ( * 2 lam15n0 ) ( * 1 lam15n2 ) ( * 1 lam15n3 ) ( * Nl2main_oldx1 lam15n4 ) ( * Nl2main_oldx2 lam15n5 ) ( * Nl2main_oldx3 lam15n6 ) ( - ( + ( - 8 ) ( * UndefDef1undef4_main_oldx ( - 2 ) ) ) ) ) 0 ) ) ( or ( = UndefCntr1_undef4 0 ) ( and ( >= lam16n0 0 ) ( >= lam16n1 0 ) ( >= lam16n2 0 ) ( >= lam16n3 0 ) ( >= lam16n4 0 ) ( >= lam16n5 0 ) ( >= lam16n6 0 ) ( > ( + ( * 2 lam16n1 ) ( * ( - 1 ) lam16n2 ) ( * 12 lam16n3 ) ( * Nl2CT1 lam16n4 ) ( * Nl2CT2 lam16n5 ) ( * Nl2CT3 lam16n6 ) ( - 1 ( + ( + ( + UndefCntr1_CT 0 ) 0 ) ( * UndefCntr1_undef4 UndefDef1undef4_CT ) ) ) ) 0 ) ( = ( + ( * ( - 1 ) lam16n0 ) ( * ( - 1 ) lam16n1 ) ( * ( - 1 ) lam16n3 ) ( * Nl2main_x1 lam16n4 ) ( * Nl2main_x2 lam16n5 ) ( * Nl2main_x3 lam16n6 ) ( - ( + UndefCntr1_main_x ( * UndefDef1undef4_main_x UndefCntr1_undef4 ) ) ) ) 0 ) ( = ( + ( * 2 lam16n0 ) ( * 1 lam16n2 ) ( * 1 lam16n3 ) ( * Nl2main_oldx1 lam16n4 ) ( * Nl2main_oldx2 lam16n5 ) ( * Nl2main_oldx3 lam16n6 ) ( - ( + UndefCntr1_main_oldx ( * UndefDef1undef4_main_oldx UndefCntr1_undef4 ) ) ) ) 0 ) ) ) ) ))
(assert ( or ( and ( >= lam17n0 0 ) ( >= lam17n1 0 ) ( >= lam17n2 0 ) ( >= lam17n3 0 ) ( >= lam17n4 0 ) ( >= lam17n5 0 ) ( >= lam17n6 0 ) ( > ( + ( * ( - 1 ) lam17n1 ) ( * ( - 1 ) lam17n2 ) ( * 12 lam17n3 ) ( * Nl2CT1 lam17n4 ) ( * Nl2CT2 lam17n5 ) ( * Nl2CT3 lam17n6 ) ( - 1 ) ) 0 ) ( = ( + ( * ( - 1 ) lam17n0 ) ( * 1 lam17n1 ) ( * ( - 1 ) lam17n3 ) ( * Nl2main_x1 lam17n4 ) ( * Nl2main_x2 lam17n5 ) ( * Nl2main_x3 lam17n6 ) ) 0 ) ( = ( + ( * 2 lam17n0 ) ( * 1 lam17n2 ) ( * 1 lam17n3 ) ( * Nl2main_oldx1 lam17n4 ) ( * Nl2main_oldx2 lam17n5 ) ( * Nl2main_oldx3 lam17n6 ) ) 0 ) ) ( and ( >= lam18n0 0 ) ( >= lam18n1 0 ) ( >= lam18n2 0 ) ( >= lam18n3 0 ) ( >= lam18n4 0 ) ( >= lam18n5 0 ) ( >= lam18n6 0 ) ( > ( + ( * 1 lam18n0 ) ( * 2 lam18n1 ) ( * 5 lam18n2 ) ( * 12 lam18n3 ) ( * Nl2CT1 lam18n4 ) ( * Nl2CT2 lam18n5 ) ( * Nl2CT3 lam18n6 ) ( - 1 ) ) 0 ) ( = ( + ( * 1 lam18n0 ) ( * ( - 1 ) lam18n1 ) ( * ( - 1 ) lam18n3 ) ( * Nl2main_x1 lam18n4 ) ( * Nl2main_x2 lam18n5 ) ( * Nl2main_x3 lam18n6 ) ) 0 ) ( = ( + ( * ( - 2 ) lam18n0 ) ( * ( - 1 ) lam18n2 ) ( * 1 lam18n3 ) ( * Nl2main_oldx1 lam18n4 ) ( * Nl2main_oldx2 lam18n5 ) ( * Nl2main_oldx3 lam18n6 ) ) 0 ) ) ))
(assert ( and ( and ( <= ( + Nl2CT1 ( * Nl2main_x1 FV_main_x_3 ) ( * Nl2main_oldx1 FV_main_oldx_3 ) ) 0 ) ( <= ( + Nl2CT2 ( * Nl2main_x2 FV_main_x_3 ) ( * Nl2main_oldx2 FV_main_oldx_3 ) ) 0 ) ( <= ( + Nl2CT3 ( * Nl2main_x3 FV_main_x_3 ) ( * Nl2main_oldx3 FV_main_oldx_3 ) ) 0 ) ) ( or ( and ( <= ( + ( * ( - 1 ) FV_main_x_3 ) ( * 2 FV_main_oldx_3 ) ) 0 ) ( <= ( + 2 ( * ( - 1 ) FV_main_x_3 ) ) 0 ) ( <= ( + 2 ( * ( - 1 ) FV_main_oldx_3 ) ) 0 ) ( <= ( + ( - 3 ) ( * 2 FV_main_x_3 ) ( * 2 FV_main_oldx_3 ) ( * ( - 1 ) FV_undef4_3 ) ) 0 ) ( <= ( + 12 ( * ( - 1 ) FV_main_x_3 ) FV_main_oldx_3 ) 0 ) ) ( and ( <= ( + ( * ( - 1 ) FV_main_x_3 ) ( * 2 FV_main_oldx_3 ) ) 0 ) ( <= ( + 2 ( * ( - 1 ) FV_main_x_3 ) ) 0 ) ( <= ( + ( - 1 ) FV_main_oldx_3 ) 0 ) ( <= ( + ( - 4 ) ( * 5 FV_main_x_3 ) ( * ( - 8 ) FV_main_oldx_3 ) ( * ( - 2 ) FV_undef4_3 ) ) 0 ) ( <= ( + 12 ( * ( - 1 ) FV_main_x_3 ) FV_main_oldx_3 ) 0 ) ) ) ))
(check-sat)
(exit)
